magmas/benchmarks/input1/Equation1247_implies_Equation3727.p.smt2
(declare-sort $$unsorted 0)
(declare-fun tptp.op ($$unsorted $$unsorted) $$unsorted)
(assert (forall ((X0 $$unsorted) (X1 $$unsorted) (X2 $$unsorted) (X3 $$unsorted)) (= X0 (tptp.op X0 (tptp.op (tptp.op (tptp.op X1 X0) X2) X3)))))
(assert (not (forall ((X0 $$unsorted) (X1 $$unsorted) (X2 $$unsorted) (X3 $$unsorted)) (let ((_let_1 (tptp.op X0 X1))) (= _let_1 (tptp.op _let_1 (tptp.op X2 X0)))))))
(set-info :filename Equation1247_implies_Equation3727)
(check-sat-assuming ( true ))
