magmas/benchmarks/p/input1/Equation1247_implies_Equation3727.p
fof(a1, axiom,
    ! [X0, X1, X2, X3] :
        (X0 = op(X0,op(op(op(X1,X0),X2),X3)))
).

fof(conjecture0, conjecture,
    ! [X0, X1, X2, X3] :
        (op(X0,X1) = op(op(X0,X1),op(X2,X0)))
).
